p tw 134 157
1 2
2 47
3 14
4 5
5 6
6 7
6 66
7 39
8 9
9 10
10 11
10 20
11 12
12 13
13 15
14 25
14 82
15 16
16 17
17 18
18 19
18 66
19 39
20 21
21 22
22 23
22 66
23 24
24 26
25 36
26 27
27 28
28 29
29 30
30 31
31 32
32 33
33 34
34 39
35 37
36 41
36 97
37 38
38 39
39 40
41 42
42 43
42 109
43 44
44 45
44 121
45 46
46 48
46 133
47 58
48 49
49 50
49 13
50 35
51 52
52 53
53 54
54 55
55 56
56 57
57 59
58 69
59 60
60 61
61 62
62 63
63 64
64 65
64 66
65 39
66 67
67 68
68 70
69 80
70 71
71 72
72 73
72 74
73 39
74 75
75 76
76 77
77 78
78 79
79 81
79 88
80 91
80 51
81 82
82 83
83 84
84 85
85 86
86 87
86 88
87 39
88 89
89 90
90 92
91 102
92 93
93 94
94 95
94 104
95 96
96 97
97 98
98 99
99 100
100 101
101 103
101 66
102 113
102 60
103 39
104 105
105 106
106 107
106 116
107 108
108 109
109 110
110 111
111 112
112 114
113 124
114 115
114 66
115 39
116 117
117 118
118 119
118 128
119 120
120 121
121 122
122 123
123 125
124 3
124 68
125 126
126 127
126 66
127 39
128 129
129 130
130 131
130 8
131 132
132 133
133 134
134 4
